\ Model crop_optimization_medium_160
\ LP format - for model browsing. Use MPS format to capture full model detail.
\ Signature: 0xbb00581862a51fe5
Maximize
  0.029548 Y_Plot1_Wheat + 0.0291564 Y_Plot1_Rice + 0.0299752 Y_Plot1_Corn
   + 0.0299396 Y_Plot1_Barley + 0.0375224 Y_Plot1_Soybeans
   + 0.0381632 Y_Plot1_Lentils + 0.038804 Y_Plot1_Chickpeas
   + 0.0351372 Y_Plot1_Potatoes + 0.0317552 Y_Plot1_Carrots
   + 0.0323248 Y_Plot1_Tomatoes + 0.0310432 Y_Plot1_Apples
   + 0.0294768 Y_Plot1_Oranges + 0.0249556 Y_Plot1_Eggs
   + 0.0259168 Y_Plot1_Chicken + 0.060507 Y_Plot2_Wheat
   + 0.0597051 Y_Plot2_Rice + 0.0613818 Y_Plot2_Corn
   + 0.0613089 Y_Plot2_Barley + 0.0768366 Y_Plot2_Soybeans
   + 0.0781488 Y_Plot2_Lentils + 0.079461 Y_Plot2_Chickpeas
   + 0.0719523 Y_Plot2_Potatoes + 0.0650268 Y_Plot2_Carrots
   + 0.0661932 Y_Plot2_Tomatoes + 0.0635688 Y_Plot2_Apples
   + 0.0603612 Y_Plot2_Oranges + 0.0511029 Y_Plot2_Eggs
   + 0.0530712 Y_Plot2_Chicken + 0.0178035 Y_Plot3_Wheat
   + 0.01756755 Y_Plot3_Rice + 0.0180609 Y_Plot3_Corn
   + 0.01803945 Y_Plot3_Barley + 0.0226083 Y_Plot3_Soybeans
   + 0.0229944 Y_Plot3_Lentils + 0.0233805 Y_Plot3_Chickpeas
   + 0.02117115 Y_Plot3_Potatoes + 0.0191334 Y_Plot3_Carrots
   + 0.0194766 Y_Plot3_Tomatoes + 0.0187044 Y_Plot3_Apples
   + 0.0177606 Y_Plot3_Oranges + 0.01503645 Y_Plot3_Eggs
   + 0.0156156 Y_Plot3_Chicken + 0.0236965 Y_Plot4_Wheat
   + 0.02338245 Y_Plot4_Rice + 0.0240391 Y_Plot4_Corn
   + 0.02401055 Y_Plot4_Barley + 0.0300917 Y_Plot4_Soybeans
   + 0.0306056 Y_Plot4_Lentils + 0.0311195 Y_Plot4_Chickpeas
   + 0.02817885 Y_Plot4_Potatoes + 0.0254666 Y_Plot4_Carrots
   + 0.0259234 Y_Plot4_Tomatoes + 0.0248956 Y_Plot4_Apples
   + 0.0236394 Y_Plot4_Oranges + 0.02001355 Y_Plot4_Eggs
   + 0.0207844 Y_Plot4_Chicken + 0.091632 Y_Plot5_Wheat
   + 0.0904176 Y_Plot5_Rice + 0.0929568 Y_Plot5_Corn
   + 0.0928464 Y_Plot5_Barley + 0.1163616 Y_Plot5_Soybeans
   + 0.1183488 Y_Plot5_Lentils + 0.120336 Y_Plot5_Chickpeas
   + 0.1089648 Y_Plot5_Potatoes + 0.0984768 Y_Plot5_Carrots
   + 0.1002432 Y_Plot5_Tomatoes + 0.0962688 Y_Plot5_Apples
   + 0.0914112 Y_Plot5_Oranges + 0.0773904 Y_Plot5_Eggs
   + 0.0803712 Y_Plot5_Chicken + 0.0509205 Y_Plot6_Wheat
   + 0.05024565 Y_Plot6_Rice + 0.0516567 Y_Plot6_Corn
   + 0.05159535 Y_Plot6_Barley + 0.0646629 Y_Plot6_Soybeans
   + 0.0657672 Y_Plot6_Lentils + 0.0668715 Y_Plot6_Chickpeas
   + 0.06055245 Y_Plot6_Potatoes + 0.0547242 Y_Plot6_Carrots
   + 0.0557058 Y_Plot6_Tomatoes + 0.0534972 Y_Plot6_Apples
   + 0.0507978 Y_Plot6_Oranges + 0.04300635 Y_Plot6_Eggs
   + 0.0446628 Y_Plot6_Chicken + 0.0310835 Y_Plot7_Wheat
   + 0.03067155 Y_Plot7_Rice + 0.0315329 Y_Plot7_Corn
   + 0.03149545 Y_Plot7_Barley + 0.0394723 Y_Plot7_Soybeans
   + 0.0401464 Y_Plot7_Lentils + 0.0408205 Y_Plot7_Chickpeas
   + 0.03696315 Y_Plot7_Potatoes + 0.0334054 Y_Plot7_Carrots
   + 0.0340046 Y_Plot7_Tomatoes + 0.0326564 Y_Plot7_Apples
   + 0.0310086 Y_Plot7_Oranges + 0.02625245 Y_Plot7_Eggs
   + 0.0272636 Y_Plot7_Chicken + 0.020999 Y_Plot8_Wheat
   + 0.0207207 Y_Plot8_Rice + 0.0213026 Y_Plot8_Corn
   + 0.0212773 Y_Plot8_Barley + 0.0266662 Y_Plot8_Soybeans
   + 0.0271216 Y_Plot8_Lentils + 0.027577 Y_Plot8_Chickpeas
   + 0.0249711 Y_Plot8_Potatoes + 0.0225676 Y_Plot8_Carrots
   + 0.0229724 Y_Plot8_Tomatoes + 0.0220616 Y_Plot8_Apples
   + 0.0209484 Y_Plot8_Oranges + 0.0177353 Y_Plot8_Eggs
   + 0.0184184 Y_Plot8_Chicken + 0.0646985 Y_Plot9_Wheat
   + 0.06384105 Y_Plot9_Rice + 0.0656339 Y_Plot9_Corn
   + 0.06555595 Y_Plot9_Barley + 0.0821593 Y_Plot9_Soybeans
   + 0.0835624 Y_Plot9_Lentils + 0.0849655 Y_Plot9_Chickpeas
   + 0.07693665 Y_Plot9_Potatoes + 0.0695314 Y_Plot9_Carrots
   + 0.0707786 Y_Plot9_Tomatoes + 0.0679724 Y_Plot9_Apples
   + 0.0645426 Y_Plot9_Oranges + 0.05464295 Y_Plot9_Eggs
   + 0.0567476 Y_Plot9_Chicken + 0.0241115 Y_Plot10_Wheat
   + 0.02379195 Y_Plot10_Rice + 0.0244601 Y_Plot10_Corn
   + 0.02443105 Y_Plot10_Barley + 0.0306187 Y_Plot10_Soybeans
   + 0.0311416 Y_Plot10_Lentils + 0.0316645 Y_Plot10_Chickpeas
   + 0.02867235 Y_Plot10_Potatoes + 0.0259126 Y_Plot10_Carrots
   + 0.0263774 Y_Plot10_Tomatoes + 0.0253316 Y_Plot10_Apples
   + 0.0240534 Y_Plot10_Oranges + 0.02036405 Y_Plot10_Eggs
   + 0.0211484 Y_Plot10_Chicken
Subject To
 Max_Assignment_Plot1: Y_Plot1_Wheat + Y_Plot1_Rice + Y_Plot1_Corn
   + Y_Plot1_Barley + Y_Plot1_Soybeans + Y_Plot1_Lentils
   + Y_Plot1_Chickpeas + Y_Plot1_Potatoes + Y_Plot1_Carrots
   + Y_Plot1_Tomatoes + Y_Plot1_Apples + Y_Plot1_Oranges + Y_Plot1_Eggs
   + Y_Plot1_Chicken <= 1
 Max_Assignment_Plot2: Y_Plot2_Wheat + Y_Plot2_Rice + Y_Plot2_Corn
   + Y_Plot2_Barley + Y_Plot2_Soybeans + Y_Plot2_Lentils
   + Y_Plot2_Chickpeas + Y_Plot2_Potatoes + Y_Plot2_Carrots
   + Y_Plot2_Tomatoes + Y_Plot2_Apples + Y_Plot2_Oranges + Y_Plot2_Eggs
   + Y_Plot2_Chicken <= 1
 Max_Assignment_Plot3: Y_Plot3_Wheat + Y_Plot3_Rice + Y_Plot3_Corn
   + Y_Plot3_Barley + Y_Plot3_Soybeans + Y_Plot3_Lentils
   + Y_Plot3_Chickpeas + Y_Plot3_Potatoes + Y_Plot3_Carrots
   + Y_Plot3_Tomatoes + Y_Plot3_Apples + Y_Plot3_Oranges + Y_Plot3_Eggs
   + Y_Plot3_Chicken <= 1
 Max_Assignment_Plot4: Y_Plot4_Wheat + Y_Plot4_Rice + Y_Plot4_Corn
   + Y_Plot4_Barley + Y_Plot4_Soybeans + Y_Plot4_Lentils
   + Y_Plot4_Chickpeas + Y_Plot4_Potatoes + Y_Plot4_Carrots
   + Y_Plot4_Tomatoes + Y_Plot4_Apples + Y_Plot4_Oranges + Y_Plot4_Eggs
   + Y_Plot4_Chicken <= 1
 Max_Assignment_Plot5: Y_Plot5_Wheat + Y_Plot5_Rice + Y_Plot5_Corn
   + Y_Plot5_Barley + Y_Plot5_Soybeans + Y_Plot5_Lentils
   + Y_Plot5_Chickpeas + Y_Plot5_Potatoes + Y_Plot5_Carrots
   + Y_Plot5_Tomatoes + Y_Plot5_Apples + Y_Plot5_Oranges + Y_Plot5_Eggs
   + Y_Plot5_Chicken <= 1
 Max_Assignment_Plot6: Y_Plot6_Wheat + Y_Plot6_Rice + Y_Plot6_Corn
   + Y_Plot6_Barley + Y_Plot6_Soybeans + Y_Plot6_Lentils
   + Y_Plot6_Chickpeas + Y_Plot6_Potatoes + Y_Plot6_Carrots
   + Y_Plot6_Tomatoes + Y_Plot6_Apples + Y_Plot6_Oranges + Y_Plot6_Eggs
   + Y_Plot6_Chicken <= 1
 Max_Assignment_Plot7: Y_Plot7_Wheat + Y_Plot7_Rice + Y_Plot7_Corn
   + Y_Plot7_Barley + Y_Plot7_Soybeans + Y_Plot7_Lentils
   + Y_Plot7_Chickpeas + Y_Plot7_Potatoes + Y_Plot7_Carrots
   + Y_Plot7_Tomatoes + Y_Plot7_Apples + Y_Plot7_Oranges + Y_Plot7_Eggs
   + Y_Plot7_Chicken <= 1
 Max_Assignment_Plot8: Y_Plot8_Wheat + Y_Plot8_Rice + Y_Plot8_Corn
   + Y_Plot8_Barley + Y_Plot8_Soybeans + Y_Plot8_Lentils
   + Y_Plot8_Chickpeas + Y_Plot8_Potatoes + Y_Plot8_Carrots
   + Y_Plot8_Tomatoes + Y_Plot8_Apples + Y_Plot8_Oranges + Y_Plot8_Eggs
   + Y_Plot8_Chicken <= 1
 Max_Assignment_Plot9: Y_Plot9_Wheat + Y_Plot9_Rice + Y_Plot9_Corn
   + Y_Plot9_Barley + Y_Plot9_Soybeans + Y_Plot9_Lentils
   + Y_Plot9_Chickpeas + Y_Plot9_Potatoes + Y_Plot9_Carrots
   + Y_Plot9_Tomatoes + Y_Plot9_Apples + Y_Plot9_Oranges + Y_Plot9_Eggs
   + Y_Plot9_Chicken <= 1
 Max_Assignment_Plot10: Y_Plot10_Wheat + Y_Plot10_Rice + Y_Plot10_Corn
   + Y_Plot10_Barley + Y_Plot10_Soybeans + Y_Plot10_Lentils
   + Y_Plot10_Chickpeas + Y_Plot10_Potatoes + Y_Plot10_Carrots
   + Y_Plot10_Tomatoes + Y_Plot10_Apples + Y_Plot10_Oranges + Y_Plot10_Eggs
   + Y_Plot10_Chicken <= 1
 U_Link_Plot1_Wheat: Y_Plot1_Wheat - U_Wheat <= 0
 U_Link_Plot2_Wheat: Y_Plot2_Wheat - U_Wheat <= 0
 U_Link_Plot3_Wheat: Y_Plot3_Wheat - U_Wheat <= 0
 U_Link_Plot4_Wheat: Y_Plot4_Wheat - U_Wheat <= 0
 U_Link_Plot5_Wheat: Y_Plot5_Wheat - U_Wheat <= 0
 U_Link_Plot6_Wheat: Y_Plot6_Wheat - U_Wheat <= 0
 U_Link_Plot7_Wheat: Y_Plot7_Wheat - U_Wheat <= 0
 U_Link_Plot8_Wheat: Y_Plot8_Wheat - U_Wheat <= 0
 U_Link_Plot9_Wheat: Y_Plot9_Wheat - U_Wheat <= 0
 U_Link_Plot10_Wheat: Y_Plot10_Wheat - U_Wheat <= 0
 U_Bound_Wheat: - Y_Plot1_Wheat - Y_Plot2_Wheat - Y_Plot3_Wheat
   - Y_Plot4_Wheat - Y_Plot5_Wheat - Y_Plot6_Wheat - Y_Plot7_Wheat
   - Y_Plot8_Wheat - Y_Plot9_Wheat - Y_Plot10_Wheat + U_Wheat <= 0
 U_Link_Plot1_Rice: Y_Plot1_Rice - U_Rice <= 0
 U_Link_Plot2_Rice: Y_Plot2_Rice - U_Rice <= 0
 U_Link_Plot3_Rice: Y_Plot3_Rice - U_Rice <= 0
 U_Link_Plot4_Rice: Y_Plot4_Rice - U_Rice <= 0
 U_Link_Plot5_Rice: Y_Plot5_Rice - U_Rice <= 0
 U_Link_Plot6_Rice: Y_Plot6_Rice - U_Rice <= 0
 U_Link_Plot7_Rice: Y_Plot7_Rice - U_Rice <= 0
 U_Link_Plot8_Rice: Y_Plot8_Rice - U_Rice <= 0
 U_Link_Plot9_Rice: Y_Plot9_Rice - U_Rice <= 0
 U_Link_Plot10_Rice: Y_Plot10_Rice - U_Rice <= 0
 U_Bound_Rice: - Y_Plot1_Rice - Y_Plot2_Rice - Y_Plot3_Rice - Y_Plot4_Rice
   - Y_Plot5_Rice - Y_Plot6_Rice - Y_Plot7_Rice - Y_Plot8_Rice
   - Y_Plot9_Rice - Y_Plot10_Rice + U_Rice <= 0
 U_Link_Plot1_Corn: Y_Plot1_Corn - U_Corn <= 0
 U_Link_Plot2_Corn: Y_Plot2_Corn - U_Corn <= 0
 U_Link_Plot3_Corn: Y_Plot3_Corn - U_Corn <= 0
 U_Link_Plot4_Corn: Y_Plot4_Corn - U_Corn <= 0
 U_Link_Plot5_Corn: Y_Plot5_Corn - U_Corn <= 0
 U_Link_Plot6_Corn: Y_Plot6_Corn - U_Corn <= 0
 U_Link_Plot7_Corn: Y_Plot7_Corn - U_Corn <= 0
 U_Link_Plot8_Corn: Y_Plot8_Corn - U_Corn <= 0
 U_Link_Plot9_Corn: Y_Plot9_Corn - U_Corn <= 0
 U_Link_Plot10_Corn: Y_Plot10_Corn - U_Corn <= 0
 U_Bound_Corn: - Y_Plot1_Corn - Y_Plot2_Corn - Y_Plot3_Corn - Y_Plot4_Corn
   - Y_Plot5_Corn - Y_Plot6_Corn - Y_Plot7_Corn - Y_Plot8_Corn
   - Y_Plot9_Corn - Y_Plot10_Corn + U_Corn <= 0
 U_Link_Plot1_Barley: Y_Plot1_Barley - U_Barley <= 0
 U_Link_Plot2_Barley: Y_Plot2_Barley - U_Barley <= 0
 U_Link_Plot3_Barley: Y_Plot3_Barley - U_Barley <= 0
 U_Link_Plot4_Barley: Y_Plot4_Barley - U_Barley <= 0
 U_Link_Plot5_Barley: Y_Plot5_Barley - U_Barley <= 0
 U_Link_Plot6_Barley: Y_Plot6_Barley - U_Barley <= 0
 U_Link_Plot7_Barley: Y_Plot7_Barley - U_Barley <= 0
 U_Link_Plot8_Barley: Y_Plot8_Barley - U_Barley <= 0
 U_Link_Plot9_Barley: Y_Plot9_Barley - U_Barley <= 0
 U_Link_Plot10_Barley: Y_Plot10_Barley - U_Barley <= 0
 U_Bound_Barley: - Y_Plot1_Barley - Y_Plot2_Barley - Y_Plot3_Barley
   - Y_Plot4_Barley - Y_Plot5_Barley - Y_Plot6_Barley - Y_Plot7_Barley
   - Y_Plot8_Barley - Y_Plot9_Barley - Y_Plot10_Barley + U_Barley <= 0
 U_Link_Plot1_Soybeans: Y_Plot1_Soybeans - U_Soybeans <= 0
 U_Link_Plot2_Soybeans: Y_Plot2_Soybeans - U_Soybeans <= 0
 U_Link_Plot3_Soybeans: Y_Plot3_Soybeans - U_Soybeans <= 0
 U_Link_Plot4_Soybeans: Y_Plot4_Soybeans - U_Soybeans <= 0
 U_Link_Plot5_Soybeans: Y_Plot5_Soybeans - U_Soybeans <= 0
 U_Link_Plot6_Soybeans: Y_Plot6_Soybeans - U_Soybeans <= 0
 U_Link_Plot7_Soybeans: Y_Plot7_Soybeans - U_Soybeans <= 0
 U_Link_Plot8_Soybeans: Y_Plot8_Soybeans - U_Soybeans <= 0
 U_Link_Plot9_Soybeans: Y_Plot9_Soybeans - U_Soybeans <= 0
 U_Link_Plot10_Soybeans: Y_Plot10_Soybeans - U_Soybeans <= 0
 U_Bound_Soybeans: - Y_Plot1_Soybeans - Y_Plot2_Soybeans - Y_Plot3_Soybeans
   - Y_Plot4_Soybeans - Y_Plot5_Soybeans - Y_Plot6_Soybeans
   - Y_Plot7_Soybeans - Y_Plot8_Soybeans - Y_Plot9_Soybeans
   - Y_Plot10_Soybeans + U_Soybeans <= 0
 U_Link_Plot1_Lentils: Y_Plot1_Lentils - U_Lentils <= 0
 U_Link_Plot2_Lentils: Y_Plot2_Lentils - U_Lentils <= 0
 U_Link_Plot3_Lentils: Y_Plot3_Lentils - U_Lentils <= 0
 U_Link_Plot4_Lentils: Y_Plot4_Lentils - U_Lentils <= 0
 U_Link_Plot5_Lentils: Y_Plot5_Lentils - U_Lentils <= 0
 U_Link_Plot6_Lentils: Y_Plot6_Lentils - U_Lentils <= 0
 U_Link_Plot7_Lentils: Y_Plot7_Lentils - U_Lentils <= 0
 U_Link_Plot8_Lentils: Y_Plot8_Lentils - U_Lentils <= 0
 U_Link_Plot9_Lentils: Y_Plot9_Lentils - U_Lentils <= 0
 U_Link_Plot10_Lentils: Y_Plot10_Lentils - U_Lentils <= 0
 U_Bound_Lentils: - Y_Plot1_Lentils - Y_Plot2_Lentils - Y_Plot3_Lentils
   - Y_Plot4_Lentils - Y_Plot5_Lentils - Y_Plot6_Lentils - Y_Plot7_Lentils
   - Y_Plot8_Lentils - Y_Plot9_Lentils - Y_Plot10_Lentils + U_Lentils <= 0
 U_Link_Plot1_Chickpeas: Y_Plot1_Chickpeas - U_Chickpeas <= 0
 U_Link_Plot2_Chickpeas: Y_Plot2_Chickpeas - U_Chickpeas <= 0
 U_Link_Plot3_Chickpeas: Y_Plot3_Chickpeas - U_Chickpeas <= 0
 U_Link_Plot4_Chickpeas: Y_Plot4_Chickpeas - U_Chickpeas <= 0
 U_Link_Plot5_Chickpeas: Y_Plot5_Chickpeas - U_Chickpeas <= 0
 U_Link_Plot6_Chickpeas: Y_Plot6_Chickpeas - U_Chickpeas <= 0
 U_Link_Plot7_Chickpeas: Y_Plot7_Chickpeas - U_Chickpeas <= 0
 U_Link_Plot8_Chickpeas: Y_Plot8_Chickpeas - U_Chickpeas <= 0
 U_Link_Plot9_Chickpeas: Y_Plot9_Chickpeas - U_Chickpeas <= 0
 U_Link_Plot10_Chickpeas: Y_Plot10_Chickpeas - U_Chickpeas <= 0
 U_Bound_Chickpeas: - Y_Plot1_Chickpeas - Y_Plot2_Chickpeas
   - Y_Plot3_Chickpeas - Y_Plot4_Chickpeas - Y_Plot5_Chickpeas
   - Y_Plot6_Chickpeas - Y_Plot7_Chickpeas - Y_Plot8_Chickpeas
   - Y_Plot9_Chickpeas - Y_Plot10_Chickpeas + U_Chickpeas <= 0
 U_Link_Plot1_Potatoes: Y_Plot1_Potatoes - U_Potatoes <= 0
 U_Link_Plot2_Potatoes: Y_Plot2_Potatoes - U_Potatoes <= 0
 U_Link_Plot3_Potatoes: Y_Plot3_Potatoes - U_Potatoes <= 0
 U_Link_Plot4_Potatoes: Y_Plot4_Potatoes - U_Potatoes <= 0
 U_Link_Plot5_Potatoes: Y_Plot5_Potatoes - U_Potatoes <= 0
 U_Link_Plot6_Potatoes: Y_Plot6_Potatoes - U_Potatoes <= 0
 U_Link_Plot7_Potatoes: Y_Plot7_Potatoes - U_Potatoes <= 0
 U_Link_Plot8_Potatoes: Y_Plot8_Potatoes - U_Potatoes <= 0
 U_Link_Plot9_Potatoes: Y_Plot9_Potatoes - U_Potatoes <= 0
 U_Link_Plot10_Potatoes: Y_Plot10_Potatoes - U_Potatoes <= 0
 U_Bound_Potatoes: - Y_Plot1_Potatoes - Y_Plot2_Potatoes - Y_Plot3_Potatoes
   - Y_Plot4_Potatoes - Y_Plot5_Potatoes - Y_Plot6_Potatoes
   - Y_Plot7_Potatoes - Y_Plot8_Potatoes - Y_Plot9_Potatoes
   - Y_Plot10_Potatoes + U_Potatoes <= 0
 U_Link_Plot1_Carrots: Y_Plot1_Carrots - U_Carrots <= 0
 U_Link_Plot2_Carrots: Y_Plot2_Carrots - U_Carrots <= 0
 U_Link_Plot3_Carrots: Y_Plot3_Carrots - U_Carrots <= 0
 U_Link_Plot4_Carrots: Y_Plot4_Carrots - U_Carrots <= 0
 U_Link_Plot5_Carrots: Y_Plot5_Carrots - U_Carrots <= 0
 U_Link_Plot6_Carrots: Y_Plot6_Carrots - U_Carrots <= 0
 U_Link_Plot7_Carrots: Y_Plot7_Carrots - U_Carrots <= 0
 U_Link_Plot8_Carrots: Y_Plot8_Carrots - U_Carrots <= 0
 U_Link_Plot9_Carrots: Y_Plot9_Carrots - U_Carrots <= 0
 U_Link_Plot10_Carrots: Y_Plot10_Carrots - U_Carrots <= 0
 U_Bound_Carrots: - Y_Plot1_Carrots - Y_Plot2_Carrots - Y_Plot3_Carrots
   - Y_Plot4_Carrots - Y_Plot5_Carrots - Y_Plot6_Carrots - Y_Plot7_Carrots
   - Y_Plot8_Carrots - Y_Plot9_Carrots - Y_Plot10_Carrots + U_Carrots <= 0
 U_Link_Plot1_Tomatoes: Y_Plot1_Tomatoes - U_Tomatoes <= 0
 U_Link_Plot2_Tomatoes: Y_Plot2_Tomatoes - U_Tomatoes <= 0
 U_Link_Plot3_Tomatoes: Y_Plot3_Tomatoes - U_Tomatoes <= 0
 U_Link_Plot4_Tomatoes: Y_Plot4_Tomatoes - U_Tomatoes <= 0
 U_Link_Plot5_Tomatoes: Y_Plot5_Tomatoes - U_Tomatoes <= 0
 U_Link_Plot6_Tomatoes: Y_Plot6_Tomatoes - U_Tomatoes <= 0
 U_Link_Plot7_Tomatoes: Y_Plot7_Tomatoes - U_Tomatoes <= 0
 U_Link_Plot8_Tomatoes: Y_Plot8_Tomatoes - U_Tomatoes <= 0
 U_Link_Plot9_Tomatoes: Y_Plot9_Tomatoes - U_Tomatoes <= 0
 U_Link_Plot10_Tomatoes: Y_Plot10_Tomatoes - U_Tomatoes <= 0
 U_Bound_Tomatoes: - Y_Plot1_Tomatoes - Y_Plot2_Tomatoes - Y_Plot3_Tomatoes
   - Y_Plot4_Tomatoes - Y_Plot5_Tomatoes - Y_Plot6_Tomatoes
   - Y_Plot7_Tomatoes - Y_Plot8_Tomatoes - Y_Plot9_Tomatoes
   - Y_Plot10_Tomatoes + U_Tomatoes <= 0
 U_Link_Plot1_Apples: Y_Plot1_Apples - U_Apples <= 0
 U_Link_Plot2_Apples: Y_Plot2_Apples - U_Apples <= 0
 U_Link_Plot3_Apples: Y_Plot3_Apples - U_Apples <= 0
 U_Link_Plot4_Apples: Y_Plot4_Apples - U_Apples <= 0
 U_Link_Plot5_Apples: Y_Plot5_Apples - U_Apples <= 0
 U_Link_Plot6_Apples: Y_Plot6_Apples - U_Apples <= 0
 U_Link_Plot7_Apples: Y_Plot7_Apples - U_Apples <= 0
 U_Link_Plot8_Apples: Y_Plot8_Apples - U_Apples <= 0
 U_Link_Plot9_Apples: Y_Plot9_Apples - U_Apples <= 0
 U_Link_Plot10_Apples: Y_Plot10_Apples - U_Apples <= 0
 U_Bound_Apples: - Y_Plot1_Apples - Y_Plot2_Apples - Y_Plot3_Apples
   - Y_Plot4_Apples - Y_Plot5_Apples - Y_Plot6_Apples - Y_Plot7_Apples
   - Y_Plot8_Apples - Y_Plot9_Apples - Y_Plot10_Apples + U_Apples <= 0
 U_Link_Plot1_Oranges: Y_Plot1_Oranges - U_Oranges <= 0
 U_Link_Plot2_Oranges: Y_Plot2_Oranges - U_Oranges <= 0
 U_Link_Plot3_Oranges: Y_Plot3_Oranges - U_Oranges <= 0
 U_Link_Plot4_Oranges: Y_Plot4_Oranges - U_Oranges <= 0
 U_Link_Plot5_Oranges: Y_Plot5_Oranges - U_Oranges <= 0
 U_Link_Plot6_Oranges: Y_Plot6_Oranges - U_Oranges <= 0
 U_Link_Plot7_Oranges: Y_Plot7_Oranges - U_Oranges <= 0
 U_Link_Plot8_Oranges: Y_Plot8_Oranges - U_Oranges <= 0
 U_Link_Plot9_Oranges: Y_Plot9_Oranges - U_Oranges <= 0
 U_Link_Plot10_Oranges: Y_Plot10_Oranges - U_Oranges <= 0
 U_Bound_Oranges: - Y_Plot1_Oranges - Y_Plot2_Oranges - Y_Plot3_Oranges
   - Y_Plot4_Oranges - Y_Plot5_Oranges - Y_Plot6_Oranges - Y_Plot7_Oranges
   - Y_Plot8_Oranges - Y_Plot9_Oranges - Y_Plot10_Oranges + U_Oranges <= 0
 U_Link_Plot1_Eggs: Y_Plot1_Eggs - U_Eggs <= 0
 U_Link_Plot2_Eggs: Y_Plot2_Eggs - U_Eggs <= 0
 U_Link_Plot3_Eggs: Y_Plot3_Eggs - U_Eggs <= 0
 U_Link_Plot4_Eggs: Y_Plot4_Eggs - U_Eggs <= 0
 U_Link_Plot5_Eggs: Y_Plot5_Eggs - U_Eggs <= 0
 U_Link_Plot6_Eggs: Y_Plot6_Eggs - U_Eggs <= 0
 U_Link_Plot7_Eggs: Y_Plot7_Eggs - U_Eggs <= 0
 U_Link_Plot8_Eggs: Y_Plot8_Eggs - U_Eggs <= 0
 U_Link_Plot9_Eggs: Y_Plot9_Eggs - U_Eggs <= 0
 U_Link_Plot10_Eggs: Y_Plot10_Eggs - U_Eggs <= 0
 U_Bound_Eggs: - Y_Plot1_Eggs - Y_Plot2_Eggs - Y_Plot3_Eggs - Y_Plot4_Eggs
   - Y_Plot5_Eggs - Y_Plot6_Eggs - Y_Plot7_Eggs - Y_Plot8_Eggs
   - Y_Plot9_Eggs - Y_Plot10_Eggs + U_Eggs <= 0
 U_Link_Plot1_Chicken: Y_Plot1_Chicken - U_Chicken <= 0
 U_Link_Plot2_Chicken: Y_Plot2_Chicken - U_Chicken <= 0
 U_Link_Plot3_Chicken: Y_Plot3_Chicken - U_Chicken <= 0
 U_Link_Plot4_Chicken: Y_Plot4_Chicken - U_Chicken <= 0
 U_Link_Plot5_Chicken: Y_Plot5_Chicken - U_Chicken <= 0
 U_Link_Plot6_Chicken: Y_Plot6_Chicken - U_Chicken <= 0
 U_Link_Plot7_Chicken: Y_Plot7_Chicken - U_Chicken <= 0
 U_Link_Plot8_Chicken: Y_Plot8_Chicken - U_Chicken <= 0
 U_Link_Plot9_Chicken: Y_Plot9_Chicken - U_Chicken <= 0
 U_Link_Plot10_Chicken: Y_Plot10_Chicken - U_Chicken <= 0
 U_Bound_Chicken: - Y_Plot1_Chicken - Y_Plot2_Chicken - Y_Plot3_Chicken
   - Y_Plot4_Chicken - Y_Plot5_Chicken - Y_Plot6_Chicken - Y_Plot7_Chicken
   - Y_Plot8_Chicken - Y_Plot9_Chicken - Y_Plot10_Chicken + U_Chicken <= 0
 MinFoodGroup_Grains: U_Wheat + U_Rice + U_Corn + U_Barley >= 1
 MinFoodGroup_Legumes: U_Soybeans + U_Lentils + U_Chickpeas >= 1
 MinFoodGroup_Vegetables: U_Potatoes + U_Carrots + U_Tomatoes >= 1
 MinFoodGroup_Fruits: U_Apples + U_Oranges >= 1
 MinFoodGroup_Proteins: U_Eggs + U_Chicken >= 1
Bounds
Binaries
 Y_Plot1_Wheat Y_Plot1_Rice Y_Plot1_Corn Y_Plot1_Barley Y_Plot1_Soybeans
 Y_Plot1_Lentils Y_Plot1_Chickpeas Y_Plot1_Potatoes Y_Plot1_Carrots
 Y_Plot1_Tomatoes Y_Plot1_Apples Y_Plot1_Oranges Y_Plot1_Eggs
 Y_Plot1_Chicken Y_Plot2_Wheat Y_Plot2_Rice Y_Plot2_Corn Y_Plot2_Barley
 Y_Plot2_Soybeans Y_Plot2_Lentils Y_Plot2_Chickpeas Y_Plot2_Potatoes
 Y_Plot2_Carrots Y_Plot2_Tomatoes Y_Plot2_Apples Y_Plot2_Oranges
 Y_Plot2_Eggs Y_Plot2_Chicken Y_Plot3_Wheat Y_Plot3_Rice Y_Plot3_Corn
 Y_Plot3_Barley Y_Plot3_Soybeans Y_Plot3_Lentils Y_Plot3_Chickpeas
 Y_Plot3_Potatoes Y_Plot3_Carrots Y_Plot3_Tomatoes Y_Plot3_Apples
 Y_Plot3_Oranges Y_Plot3_Eggs Y_Plot3_Chicken Y_Plot4_Wheat Y_Plot4_Rice
 Y_Plot4_Corn Y_Plot4_Barley Y_Plot4_Soybeans Y_Plot4_Lentils
 Y_Plot4_Chickpeas Y_Plot4_Potatoes Y_Plot4_Carrots Y_Plot4_Tomatoes
 Y_Plot4_Apples Y_Plot4_Oranges Y_Plot4_Eggs Y_Plot4_Chicken Y_Plot5_Wheat
 Y_Plot5_Rice Y_Plot5_Corn Y_Plot5_Barley Y_Plot5_Soybeans Y_Plot5_Lentils
 Y_Plot5_Chickpeas Y_Plot5_Potatoes Y_Plot5_Carrots Y_Plot5_Tomatoes
 Y_Plot5_Apples Y_Plot5_Oranges Y_Plot5_Eggs Y_Plot5_Chicken Y_Plot6_Wheat
 Y_Plot6_Rice Y_Plot6_Corn Y_Plot6_Barley Y_Plot6_Soybeans Y_Plot6_Lentils
 Y_Plot6_Chickpeas Y_Plot6_Potatoes Y_Plot6_Carrots Y_Plot6_Tomatoes
 Y_Plot6_Apples Y_Plot6_Oranges Y_Plot6_Eggs Y_Plot6_Chicken Y_Plot7_Wheat
 Y_Plot7_Rice Y_Plot7_Corn Y_Plot7_Barley Y_Plot7_Soybeans Y_Plot7_Lentils
 Y_Plot7_Chickpeas Y_Plot7_Potatoes Y_Plot7_Carrots Y_Plot7_Tomatoes
 Y_Plot7_Apples Y_Plot7_Oranges Y_Plot7_Eggs Y_Plot7_Chicken Y_Plot8_Wheat
 Y_Plot8_Rice Y_Plot8_Corn Y_Plot8_Barley Y_Plot8_Soybeans Y_Plot8_Lentils
 Y_Plot8_Chickpeas Y_Plot8_Potatoes Y_Plot8_Carrots Y_Plot8_Tomatoes
 Y_Plot8_Apples Y_Plot8_Oranges Y_Plot8_Eggs Y_Plot8_Chicken Y_Plot9_Wheat
 Y_Plot9_Rice Y_Plot9_Corn Y_Plot9_Barley Y_Plot9_Soybeans Y_Plot9_Lentils
 Y_Plot9_Chickpeas Y_Plot9_Potatoes Y_Plot9_Carrots Y_Plot9_Tomatoes
 Y_Plot9_Apples Y_Plot9_Oranges Y_Plot9_Eggs Y_Plot9_Chicken Y_Plot10_Wheat
 Y_Plot10_Rice Y_Plot10_Corn Y_Plot10_Barley Y_Plot10_Soybeans
 Y_Plot10_Lentils Y_Plot10_Chickpeas Y_Plot10_Potatoes Y_Plot10_Carrots
 Y_Plot10_Tomatoes Y_Plot10_Apples Y_Plot10_Oranges Y_Plot10_Eggs
 Y_Plot10_Chicken U_Wheat U_Rice U_Corn U_Barley U_Soybeans U_Lentils
 U_Chickpeas U_Potatoes U_Carrots U_Tomatoes U_Apples U_Oranges U_Eggs
 U_Chicken
End
